c File: flat30_3_0.col
c
c SOURCE: Joseph Culberson (joe@cs.ualberta.ca)
c DESCRIPTION: Quasi-random coloring problem
c              generated with flatness = 0
c                             probability = 0.200
c                             known coloring = 3
c                             random seed = 245936
c              Creation Date:  Fri Nov 29 22:02:42 1996
c Maximum degree = 6 Minimum degree = 0
c
c cnf created by edge2cnf
p cnf 90 300
-1 -2 0
-1 -3 0
-2 -3 0
1 2 3 0
-4 -5 0
-4 -6 0
-5 -6 0
4 5 6 0
-7 -8 0
-7 -9 0
-8 -9 0
7 8 9 0
-10 -11 0
-10 -12 0
-11 -12 0
10 11 12 0
-13 -14 0
-13 -15 0
-14 -15 0
13 14 15 0
-16 -17 0
-16 -18 0
-17 -18 0
16 17 18 0
-19 -20 0
-19 -21 0
-20 -21 0
19 20 21 0
-22 -23 0
-22 -24 0
-23 -24 0
22 23 24 0
-25 -26 0
-25 -27 0
-26 -27 0
25 26 27 0
-28 -29 0
-28 -30 0
-29 -30 0
28 29 30 0
-31 -32 0
-31 -33 0
-32 -33 0
31 32 33 0
-34 -35 0
-34 -36 0
-35 -36 0
34 35 36 0
-37 -38 0
-37 -39 0
-38 -39 0
37 38 39 0
-40 -41 0
-40 -42 0
-41 -42 0
40 41 42 0
-43 -44 0
-43 -45 0
-44 -45 0
43 44 45 0
-46 -47 0
-46 -48 0
-47 -48 0
46 47 48 0
-49 -50 0
-49 -51 0
-50 -51 0
49 50 51 0
-52 -53 0
-52 -54 0
-53 -54 0
52 53 54 0
-55 -56 0
-55 -57 0
-56 -57 0
55 56 57 0
-58 -59 0
-58 -60 0
-59 -60 0
58 59 60 0
-61 -62 0
-61 -63 0
-62 -63 0
61 62 63 0
-64 -65 0
-64 -66 0
-65 -66 0
64 65 66 0
-67 -68 0
-67 -69 0
-68 -69 0
67 68 69 0
-70 -71 0
-70 -72 0
-71 -72 0
70 71 72 0
-73 -74 0
-73 -75 0
-74 -75 0
73 74 75 0
-76 -77 0
-76 -78 0
-77 -78 0
76 77 78 0
-79 -80 0
-79 -81 0
-80 -81 0
79 80 81 0
-82 -83 0
-82 -84 0
-83 -84 0
82 83 84 0
-85 -86 0
-85 -87 0
-86 -87 0
85 86 87 0
-88 -89 0
-88 -90 0
-89 -90 0
88 89 90 0
-31 -1 0
-32 -2 0
-33 -3 0
-40 -1 0
-41 -2 0
-42 -3 0
-52 -1 0
-53 -2 0
-54 -3 0
-70 -1 0
-71 -2 0
-72 -3 0
-88 -1 0
-89 -2 0
-90 -3 0
-31 -4 0
-32 -5 0
-33 -6 0
-46 -4 0
-47 -5 0
-48 -6 0
-55 -4 0
-56 -5 0
-57 -6 0
-46 -7 0
-47 -8 0
-48 -9 0
-49 -7 0
-50 -8 0
-51 -9 0
-64 -7 0
-65 -8 0
-66 -9 0
-76 -7 0
-77 -8 0
-78 -9 0
-40 -10 0
-41 -11 0
-42 -12 0
-61 -10 0
-62 -11 0
-63 -12 0
-73 -10 0
-74 -11 0
-75 -12 0
-49 -13 0
-50 -14 0
-51 -15 0
-61 -13 0
-62 -14 0
-63 -15 0
-64 -13 0
-65 -14 0
-66 -15 0
-76 -13 0
-77 -14 0
-78 -15 0
-58 -16 0
-59 -17 0
-60 -18 0
-31 -19 0
-32 -20 0
-33 -21 0
-43 -19 0
-44 -20 0
-45 -21 0
-58 -19 0
-59 -20 0
-60 -21 0
-67 -19 0
-68 -20 0
-69 -21 0
-85 -19 0
-86 -20 0
-87 -21 0
-43 -22 0
-44 -23 0
-45 -24 0
-67 -22 0
-68 -23 0
-69 -24 0
-76 -22 0
-77 -23 0
-78 -24 0
-85 -22 0
-86 -23 0
-87 -24 0
-40 -25 0
-41 -26 0
-42 -27 0
-43 -25 0
-44 -26 0
-45 -27 0
-55 -25 0
-56 -26 0
-57 -27 0
-67 -25 0
-68 -26 0
-69 -27 0
-70 -25 0
-71 -26 0
-72 -27 0
-85 -25 0
-86 -26 0
-87 -27 0
-46 -28 0
-47 -29 0
-48 -30 0
-55 -28 0
-56 -29 0
-57 -30 0
-61 -28 0
-62 -29 0
-63 -30 0
-64 -28 0
-65 -29 0
-66 -30 0
-70 -28 0
-71 -29 0
-72 -30 0
-76 -31 0
-77 -32 0
-78 -33 0
-82 -31 0
-83 -32 0
-84 -33 0
-82 -34 0
-83 -35 0
-84 -36 0
-85 -37 0
-86 -38 0
-87 -39 0
-64 -40 0
-65 -41 0
-66 -42 0
-76 -40 0
-77 -41 0
-78 -42 0
-88 -40 0
-89 -41 0
-90 -42 0
-70 -43 0
-71 -44 0
-72 -45 0
-73 -43 0
-74 -44 0
-75 -45 0
-61 -49 0
-62 -50 0
-63 -51 0
-73 -49 0
-74 -50 0
-75 -51 0
-82 -49 0
-83 -50 0
-84 -51 0
-67 -52 0
-68 -53 0
-69 -54 0
-70 -52 0
-71 -53 0
-72 -54 0
-88 -52 0
-89 -53 0
-90 -54 0
-61 -55 0
-62 -56 0
-63 -57 0
-64 -55 0
-65 -56 0
-66 -57 0
-67 -58 0
-68 -59 0
-69 -60 0
-76 -58 0
-77 -59 0
-78 -60 0
-85 -58 0
-86 -59 0
-87 -60 0
